
(set-logic ALL) 

(declare-datatype MyList ((Nil) (Cons (head Real) (tail MyList)) )) 
(declare-fun l0 () MyList) 
(declare-fun l1 () MyList) 
(declare-fun l2 () MyList) 
(declare-fun l3 () MyList) 
(declare-fun i0 () Real) 
(declare-fun i1 () Real) 
(assert (not (= l1 Nil)) )
(assert (is-Nil Nil) )
(assert (= l1 Nil) )
(assert (or (is-Cons Nil) (is-Nil Nil) (= l3 l2)) )
(assert (not (= l0 l0)) )
(assert (or (= l0 l0) (= l0 l3)) )
(assert (or (= l3 Nil) (= l2 Nil) (is-Nil l1) (is-Nil Nil)) )
(assert (is-Nil l1) )
(check-sat)
